NAME 
OBJSENSE MAX
ROWS
 N  OBJ
 L  packing[0]
 L  packing[1]
 L  packing[2]
 L  packing[3]
 L  packing[4]
 L  packing[5]
 L  packing[6]
 L  packing[7]
 L  packing[8]
 L  packing[9]
 L  packing[10]
 L  packing[11]
 L  packing[12]
 L  packing[13]
 L  packing[14]
 L  packing[15]
 L  packing[16]
 L  packing[17]
 L  packing[18]
 L  packing[19]
 L  packing[20]
 L  packing[21]
 L  packing[22]
 L  packing[23]
 L  packing[24]
 L  packing[25]
 L  packing[26]
 L  packing[27]
 L  packing[28]
 L  packing[29]
 L  packing[30]
 L  packing[31]
 L  packing[32]
 L  packing[33]
 L  packing[34]
 L  packing[35]
 L  packing[36]
 L  packing[37]
 L  packing[38]
 L  packing[39]
 L  packing[40]
 L  packing[41]
 L  packing[42]
 L  packing[43]
 L  packing[44]
 L  packing[45]
 L  packing[46]
 L  packing[47]
 L  packing[48]
 L  packing[49]
 L  R57     
COLUMNS
    MARKER    'MARKER'                 'INTORG'
    x[1]      OBJ       126
    x[1]      packing[0]  94
    x[1]      packing[3]  37
    x[1]      packing[4]  102
    x[1]      packing[6]  192
    x[1]      packing[8]  49
    x[1]      packing[9]  54
    x[1]      packing[10]  151
    x[1]      packing[11]  60
    x[1]      packing[12]  162
    x[1]      packing[13]  146
    x[1]      packing[14]  8
    x[1]      packing[15]  17
    x[1]      packing[17]  64
    x[1]      packing[19]  48
    x[1]      packing[20]  98
    x[1]      packing[23]  20
    x[1]      packing[25]  163
    x[1]      packing[26]  81
    x[1]      packing[28]  50
    x[1]      packing[29]  24
    x[1]      packing[30]  46
    x[1]      packing[33]  67
    x[1]      packing[34]  92
    x[1]      packing[35]  40
    x[1]      packing[36]  109
    x[1]      packing[40]  82
    x[1]      packing[41]  166
    x[1]      packing[43]  171
    x[1]      packing[44]  150
    x[1]      packing[45]  11
    x[1]      packing[47]  101
    x[1]      packing[48]  157
    x[1]      packing[49]  79
    x[2]      OBJ       94
    x[2]      packing[0]  78
    x[2]      packing[2]  27
    x[2]      packing[3]  2
    x[2]      packing[4]  192
    x[2]      packing[5]  90
    x[2]      packing[6]  50
    x[2]      packing[8]  39
    x[2]      packing[14]  158
    x[2]      packing[16]  42
    x[2]      packing[17]  32
    x[2]      packing[18]  181
    x[2]      packing[19]  197
    x[2]      packing[21]  144
    x[2]      packing[22]  109
    x[2]      packing[23]  192
    x[2]      packing[24]  195
    x[2]      packing[25]  155
    x[2]      packing[27]  75
    x[2]      packing[28]  62
    x[2]      packing[29]  98
    x[2]      packing[30]  68
    x[2]      packing[34]  28
    x[2]      packing[35]  189
    x[2]      packing[36]  117
    x[2]      packing[37]  164
    x[2]      packing[38]  7
    x[2]      packing[39]  89
    x[2]      packing[40]  80
    x[2]      packing[41]  171
    x[2]      packing[42]  189
    x[2]      packing[43]  195
    x[2]      packing[44]  112
    x[2]      packing[46]  92
    x[2]      packing[47]  181
    x[2]      packing[48]  149
    x[2]      packing[49]  44
    x[2]      R57       1
    x[3]      OBJ       68
    x[3]      packing[0]  103
    x[3]      packing[1]  167
    x[3]      packing[2]  70
    x[3]      packing[3]  7
    x[3]      packing[5]  137
    x[3]      packing[6]  108
    x[3]      packing[7]  174
    x[3]      packing[8]  53
    x[3]      packing[9]  154
    x[3]      packing[10]  195
    x[3]      packing[11]  31
    x[3]      packing[12]  20
    x[3]      packing[13]  69
    x[3]      packing[14]  66
    x[3]      packing[15]  30
    x[3]      packing[17]  2
    x[3]      packing[18]  185
    x[3]      packing[22]  71
    x[3]      packing[23]  60
    x[3]      packing[24]  57
    x[3]      packing[25]  148
    x[3]      packing[26]  22
    x[3]      packing[27]  24
    x[3]      packing[28]  64
    x[3]      packing[29]  104
    x[3]      packing[30]  69
    x[3]      packing[31]  15
    x[3]      packing[33]  31
    x[3]      packing[35]  69
    x[3]      packing[38]  62
    x[3]      packing[39]  57
    x[3]      packing[40]  195
    x[3]      packing[41]  30
    x[3]      packing[42]  25
    x[3]      packing[43]  81
    x[3]      packing[44]  193
    x[3]      packing[45]  5
    x[3]      packing[47]  183
    x[3]      packing[48]  109
    x[3]      packing[49]  83
    x[4]      OBJ       68
    x[4]      packing[0]  54
    x[4]      packing[1]  82
    x[4]      packing[3]  87
    x[4]      packing[4]  105
    x[4]      packing[5]  33
    x[4]      packing[7]  13
    x[4]      packing[9]  30
    x[4]      packing[10]  70
    x[4]      packing[11]  128
    x[4]      packing[13]  127
    x[4]      packing[14]  93
    x[4]      packing[16]  117
    x[4]      packing[17]  178
    x[4]      packing[18]  137
    x[4]      packing[19]  144
    x[4]      packing[21]  133
    x[4]      packing[22]  143
    x[4]      packing[24]  42
    x[4]      packing[25]  127
    x[4]      packing[27]  164
    x[4]      packing[28]  35
    x[4]      packing[29]  83
    x[4]      packing[30]  105
    x[4]      packing[31]  31
    x[4]      packing[32]  97
    x[4]      packing[35]  101
    x[4]      packing[37]  171
    x[4]      packing[38]  137
    x[4]      packing[39]  74
    x[4]      packing[40]  163
    x[4]      packing[41]  155
    x[4]      packing[42]  71
    x[4]      packing[43]  123
    x[4]      packing[44]  69
    x[4]      packing[45]  25
    x[4]      packing[46]  109
    x[4]      packing[47]  155
    x[4]      packing[48]  64
    x[4]      packing[49]  11
    x[4]      R57       1
    x[5]      OBJ       156
    x[5]      packing[0]  131
    x[5]      packing[1]  41
    x[5]      packing[5]  129
    x[5]      packing[6]  61
    x[5]      packing[7]  82
    x[5]      packing[8]  132
    x[5]      packing[9]  8
    x[5]      packing[10]  194
    x[5]      packing[11]  143
    x[5]      packing[12]  181
    x[5]      packing[13]  100
    x[5]      packing[14]  129
    x[5]      packing[16]  90
    x[5]      packing[17]  108
    x[5]      packing[18]  54
    x[5]      packing[19]  21
    x[5]      packing[22]  63
    x[5]      packing[23]  156
    x[5]      packing[24]  90
    x[5]      packing[25]  60
    x[5]      packing[27]  116
    x[5]      packing[28]  106
    x[5]      packing[29]  28
    x[5]      packing[30]  103
    x[5]      packing[31]  192
    x[5]      packing[33]  32
    x[5]      packing[36]  93
    x[5]      packing[37]  108
    x[5]      packing[38]  29
    x[5]      packing[39]  172
    x[5]      packing[40]  32
    x[5]      packing[41]  123
    x[5]      packing[42]  110
    x[5]      packing[43]  74
    x[5]      packing[45]  45
    x[5]      packing[47]  18
    x[5]      packing[48]  162
    x[5]      packing[49]  17
    x[5]      R57       1
    x[6]      OBJ       46
    x[6]      packing[0]  118
    x[6]      packing[2]  17
    x[6]      packing[4]  87
    x[6]      packing[5]  138
    x[6]      packing[7]  195
    x[6]      packing[8]  66
    x[6]      packing[9]  13
    x[6]      packing[10]  183
    x[6]      packing[11]  95
    x[6]      packing[13]  15
    x[6]      packing[14]  74
    x[6]      packing[15]  196
    x[6]      packing[16]  13
    x[6]      packing[17]  74
    x[6]      packing[19]  138
    x[6]      packing[20]  191
    x[6]      packing[21]  24
    x[6]      packing[22]  13
    x[6]      packing[23]  23
    x[6]      packing[24]  128
    x[6]      packing[27]  82
    x[6]      packing[28]  198
    x[6]      packing[29]  30
    x[6]      packing[31]  163
    x[6]      packing[32]  94
    x[6]      packing[33]  158
    x[6]      packing[35]  141
    x[6]      packing[37]  49
    x[6]      packing[38]  60
    x[6]      packing[39]  23
    x[6]      packing[40]  160
    x[6]      packing[41]  58
    x[6]      packing[42]  147
    x[6]      packing[43]  34
    x[6]      packing[45]  190
    x[6]      packing[46]  157
    x[6]      packing[47]  5
    x[6]      packing[48]  145
    x[6]      packing[49]  14
    x[7]      OBJ       32
    x[7]      packing[0]  34
    x[7]      packing[1]  6
    x[7]      packing[2]  32
    x[7]      packing[6]  15
    x[7]      packing[8]  88
    x[7]      packing[10]  98
    x[7]      packing[11]  37
    x[7]      packing[12]  59
    x[7]      packing[13]  43
    x[7]      packing[14]  95
    x[7]      packing[18]  53
    x[7]      packing[19]  102
    x[7]      packing[22]  166
    x[7]      packing[23]  77
    x[7]      packing[24]  84
    x[7]      packing[25]  87
    x[7]      packing[26]  159
    x[7]      packing[27]  6
    x[7]      packing[28]  190
    x[7]      packing[29]  12
    x[7]      packing[30]  199
    x[7]      packing[31]  19
    x[7]      packing[32]  141
    x[7]      packing[33]  65
    x[7]      packing[37]  181
    x[7]      packing[38]  134
    x[7]      packing[39]  103
    x[7]      packing[41]  121
    x[7]      packing[42]  163
    x[7]      packing[43]  50
    x[7]      packing[44]  85
    x[7]      packing[45]  81
    x[7]      packing[46]  194
    x[7]      packing[48]  104
    x[7]      packing[49]  126
    x[8]      OBJ       181
    x[8]      packing[0]  129
    x[8]      packing[1]  98
    x[8]      packing[2]  152
    x[8]      packing[3]  92
    x[8]      packing[4]  137
    x[8]      packing[5]  117
    x[8]      packing[6]  58
    x[8]      packing[7]  163
    x[8]      packing[8]  105
    x[8]      packing[10]  80
    x[8]      packing[12]  88
    x[8]      packing[13]  92
    x[8]      packing[14]  60
    x[8]      packing[15]  13
    x[8]      packing[16]  130
    x[8]      packing[18]  3
    x[8]      packing[19]  83
    x[8]      packing[20]  145
    x[8]      packing[21]  87
    x[8]      packing[22]  148
    x[8]      packing[26]  160
    x[8]      packing[27]  3
    x[8]      packing[28]  172
    x[8]      packing[29]  164
    x[8]      packing[30]  160
    x[8]      packing[31]  190
    x[8]      packing[32]  81
    x[8]      packing[34]  44
    x[8]      packing[35]  130
    x[8]      packing[36]  11
    x[8]      packing[37]  7
    x[8]      packing[38]  127
    x[8]      packing[39]  171
    x[8]      packing[41]  93
    x[8]      packing[42]  108
    x[8]      packing[43]  75
    x[8]      packing[44]  56
    x[8]      packing[45]  35
    x[8]      packing[46]  67
    x[8]      packing[47]  11
    x[8]      packing[48]  162
    x[8]      packing[49]  178
    x[8]      R57       1
    x[9]      OBJ       79
    x[9]      packing[0]  24
    x[9]      packing[1]  160
    x[9]      packing[2]  196
    x[9]      packing[3]  90
    x[9]      packing[6]  91
    x[9]      packing[8]  73
    x[9]      packing[10]  176
    x[9]      packing[11]  180
    x[9]      packing[12]  51
    x[9]      packing[13]  122
    x[9]      packing[14]  157
    x[9]      packing[15]  115
    x[9]      packing[17]  104
    x[9]      packing[18]  165
    x[9]      packing[19]  135
    x[9]      packing[20]  32
    x[9]      packing[22]  53
    x[9]      packing[23]  100
    x[9]      packing[24]  122
    x[9]      packing[25]  104
    x[9]      packing[26]  40
    x[9]      packing[27]  76
    x[9]      packing[28]  140
    x[9]      packing[29]  21
    x[9]      packing[30]  64
    x[9]      packing[31]  46
    x[9]      packing[32]  113
    x[9]      packing[33]  196
    x[9]      packing[37]  124
    x[9]      packing[39]  199
    x[9]      packing[40]  173
    x[9]      packing[42]  108
    x[9]      packing[43]  184
    x[9]      packing[44]  186
    x[9]      packing[45]  140
    x[9]      packing[47]  7
    x[9]      packing[48]  39
    x[9]      packing[49]  163
    x[10]     OBJ       194
    x[10]     packing[0]  115
    x[10]     packing[3]  136
    x[10]     packing[4]  60
    x[10]     packing[5]  47
    x[10]     packing[7]  12
    x[10]     packing[8]  17
    x[10]     packing[10]  107
    x[10]     packing[11]  72
    x[10]     packing[12]  150
    x[10]     packing[13]  17
    x[10]     packing[14]  60
    x[10]     packing[16]  187
    x[10]     packing[18]  69
    x[10]     packing[19]  20
    x[10]     packing[21]  72
    x[10]     packing[22]  49
    x[10]     packing[23]  136
    x[10]     packing[24]  166
    x[10]     packing[25]  125
    x[10]     packing[26]  94
    x[10]     packing[27]  80
    x[10]     packing[28]  149
    x[10]     packing[29]  94
    x[10]     packing[30]  178
    x[10]     packing[31]  81
    x[10]     packing[33]  60
    x[10]     packing[34]  144
    x[10]     packing[35]  21
    x[10]     packing[36]  152
    x[10]     packing[37]  99
    x[10]     packing[38]  98
    x[10]     packing[39]  5
    x[10]     packing[42]  72
    x[10]     packing[45]  150
    x[10]     packing[46]  196
    x[10]     packing[47]  166
    x[10]     packing[48]  2
    x[10]     packing[49]  6
    x[10]     R57       1
    x[11]     OBJ       58
    x[11]     packing[1]  98
    x[11]     packing[2]  47
    x[11]     packing[3]  102
    x[11]     packing[4]  193
    x[11]     packing[5]  58
    x[11]     packing[7]  150
    x[11]     packing[8]  120
    x[11]     packing[9]  178
    x[11]     packing[10]  16
    x[11]     packing[11]  48
    x[11]     packing[13]  80
    x[11]     packing[15]  10
    x[11]     packing[18]  74
    x[11]     packing[20]  152
    x[11]     packing[22]  125
    x[11]     packing[23]  151
    x[11]     packing[24]  61
    x[11]     packing[26]  193
    x[11]     packing[27]  164
    x[11]     packing[28]  185
    x[11]     packing[33]  162
    x[11]     packing[36]  38
    x[11]     packing[37]  53
    x[11]     packing[38]  63
    x[11]     packing[39]  107
    x[11]     packing[40]  132
    x[11]     packing[41]  43
    x[11]     packing[42]  140
    x[11]     packing[43]  173
    x[11]     packing[45]  43
    x[11]     packing[46]  128
    x[11]     packing[47]  61
    x[11]     packing[48]  21
    x[11]     packing[49]  41
    x[12]     OBJ       169
    x[12]     packing[0]  170
    x[12]     packing[1]  38
    x[12]     packing[4]  48
    x[12]     packing[5]  6
    x[12]     packing[6]  162
    x[12]     packing[7]  103
    x[12]     packing[8]  2
    x[12]     packing[9]  192
    x[12]     packing[10]  6
    x[12]     packing[12]  27
    x[12]     packing[14]  6
    x[12]     packing[15]  82
    x[12]     packing[16]  115
    x[12]     packing[17]  194
    x[12]     packing[18]  26
    x[12]     packing[22]  143
    x[12]     packing[23]  80
    x[12]     packing[24]  81
    x[12]     packing[26]  181
    x[12]     packing[27]  33
    x[12]     packing[28]  129
    x[12]     packing[29]  105
    x[12]     packing[30]  116
    x[12]     packing[32]  51
    x[12]     packing[34]  116
    x[12]     packing[35]  1
    x[12]     packing[37]  111
    x[12]     packing[38]  103
    x[12]     packing[40]  126
    x[12]     packing[41]  162
    x[12]     packing[42]  106
    x[12]     packing[43]  63
    x[12]     packing[44]  46
    x[12]     packing[45]  130
    x[12]     packing[46]  168
    x[12]     packing[47]  3
    x[12]     packing[49]  7
    x[12]     R57       1
    x[13]     OBJ       60
    x[13]     packing[0]  180
    x[13]     packing[1]  125
    x[13]     packing[2]  158
    x[13]     packing[3]  51
    x[13]     packing[5]  7
    x[13]     packing[7]  65
    x[13]     packing[10]  87
    x[13]     packing[11]  140
    x[13]     packing[12]  37
    x[13]     packing[13]  150
    x[13]     packing[14]  39
    x[13]     packing[15]  86
    x[13]     packing[16]  93
    x[13]     packing[18]  76
    x[13]     packing[20]  154
    x[13]     packing[21]  60
    x[13]     packing[22]  68
    x[13]     packing[23]  54
    x[13]     packing[26]  90
    x[13]     packing[27]  146
    x[13]     packing[28]  182
    x[13]     packing[29]  137
    x[13]     packing[30]  104
    x[13]     packing[31]  127
    x[13]     packing[32]  62
    x[13]     packing[33]  85
    x[13]     packing[34]  144
    x[13]     packing[35]  80
    x[13]     packing[36]  107
    x[13]     packing[38]  48
    x[13]     packing[39]  49
    x[13]     packing[40]  70
    x[13]     packing[41]  26
    x[13]     packing[42]  177
    x[13]     packing[44]  124
    x[13]     packing[46]  64
    x[13]     packing[47]  99
    x[13]     packing[48]  190
    x[13]     packing[49]  148
    x[14]     OBJ       75
    x[14]     packing[0]  113
    x[14]     packing[2]  5
    x[14]     packing[3]  6
    x[14]     packing[5]  128
    x[14]     packing[7]  78
    x[14]     packing[9]  104
    x[14]     packing[10]  135
    x[14]     packing[13]  189
    x[14]     packing[16]  21
    x[14]     packing[17]  187
    x[14]     packing[18]  137
    x[14]     packing[19]  78
    x[14]     packing[21]  76
    x[14]     packing[22]  171
    x[14]     packing[23]  3
    x[14]     packing[24]  133
    x[14]     packing[25]  61
    x[14]     packing[26]  38
    x[14]     packing[27]  10
    x[14]     packing[28]  179
    x[14]     packing[29]  194
    x[14]     packing[30]  181
    x[14]     packing[31]  52
    x[14]     packing[32]  83
    x[14]     packing[33]  129
    x[14]     packing[34]  137
    x[14]     packing[35]  142
    x[14]     packing[36]  88
    x[14]     packing[38]  71
    x[14]     packing[39]  34
    x[14]     packing[40]  134
    x[14]     packing[45]  93
    x[14]     packing[46]  36
    x[14]     packing[47]  163
    x[14]     packing[48]  173
    x[14]     packing[49]  195
    x[15]     OBJ       109
    x[15]     packing[2]  83
    x[15]     packing[4]  71
    x[15]     packing[5]  73
    x[15]     packing[6]  36
    x[15]     packing[7]  163
    x[15]     packing[8]  89
    x[15]     packing[10]  100
    x[15]     packing[11]  34
    x[15]     packing[12]  93
    x[15]     packing[14]  71
    x[15]     packing[15]  9
    x[15]     packing[16]  2
    x[15]     packing[17]  107
    x[15]     packing[19]  15
    x[15]     packing[21]  10
    x[15]     packing[22]  1
    x[15]     packing[23]  189
    x[15]     packing[25]  156
    x[15]     packing[26]  43
    x[15]     packing[28]  167
    x[15]     packing[29]  52
    x[15]     packing[32]  87
    x[15]     packing[33]  138
    x[15]     packing[35]  174
    x[15]     packing[36]  68
    x[15]     packing[39]  176
    x[15]     packing[40]  26
    x[15]     packing[42]  12
    x[15]     packing[43]  101
    x[15]     packing[44]  132
    x[15]     packing[45]  110
    x[15]     packing[46]  17
    x[15]     packing[47]  42
    x[15]     packing[48]  12
    x[15]     packing[49]  179
    x[15]     R57       1
    x[16]     OBJ       35
    x[16]     packing[1]  19
    x[16]     packing[2]  43
    x[16]     packing[3]  126
    x[16]     packing[4]  23
    x[16]     packing[5]  95
    x[16]     packing[6]  88
    x[16]     packing[9]  121
    x[16]     packing[10]  183
    x[16]     packing[11]  29
    x[16]     packing[12]  143
    x[16]     packing[13]  88
    x[16]     packing[14]  77
    x[16]     packing[15]  107
    x[16]     packing[16]  180
    x[16]     packing[19]  114
    x[16]     packing[20]  184
    x[16]     packing[21]  73
    x[16]     packing[22]  113
    x[16]     packing[23]  185
    x[16]     packing[24]  44
    x[16]     packing[25]  142
    x[16]     packing[27]  66
    x[16]     packing[28]  166
    x[16]     packing[29]  139
    x[16]     packing[30]  91
    x[16]     packing[31]  108
    x[16]     packing[32]  139
    x[16]     packing[33]  113
    x[16]     packing[34]  158
    x[16]     packing[35]  164
    x[16]     packing[36]  51
    x[16]     packing[37]  101
    x[16]     packing[38]  139
    x[16]     packing[39]  93
    x[16]     packing[40]  63
    x[16]     packing[42]  84
    x[16]     packing[44]  131
    x[16]     packing[45]  114
    x[16]     packing[46]  99
    x[16]     packing[47]  122
    x[16]     packing[48]  46
    x[17]     OBJ       95
    x[17]     packing[0]  147
    x[17]     packing[1]  1
    x[17]     packing[3]  117
    x[17]     packing[4]  94
    x[17]     packing[5]  45
    x[17]     packing[6]  41
    x[17]     packing[7]  177
    x[17]     packing[8]  43
    x[17]     packing[9]  69
    x[17]     packing[10]  108
    x[17]     packing[11]  12
    x[17]     packing[12]  190
    x[17]     packing[13]  1
    x[17]     packing[14]  106
    x[17]     packing[15]  160
    x[17]     packing[16]  10
    x[17]     packing[17]  110
    x[17]     packing[18]  153
    x[17]     packing[19]  95
    x[17]     packing[21]  77
    x[17]     packing[23]  46
    x[17]     packing[24]  21
    x[17]     packing[27]  125
    x[17]     packing[28]  186
    x[17]     packing[29]  190
    x[17]     packing[30]  95
    x[17]     packing[32]  85
    x[17]     packing[33]  176
    x[17]     packing[34]  66
    x[17]     packing[36]  179
    x[17]     packing[37]  136
    x[17]     packing[39]  11
    x[17]     packing[40]  78
    x[17]     packing[41]  8
    x[17]     packing[43]  164
    x[17]     packing[44]  135
    x[17]     packing[45]  37
    x[17]     packing[46]  110
    x[17]     packing[47]  63
    x[17]     packing[48]  18
    x[18]     OBJ       93
    x[18]     packing[0]  150
    x[18]     packing[1]  168
    x[18]     packing[4]  6
    x[18]     packing[6]  114
    x[18]     packing[8]  29
    x[18]     packing[9]  57
    x[18]     packing[12]  79
    x[18]     packing[13]  153
    x[18]     packing[14]  69
    x[18]     packing[16]  192
    x[18]     packing[17]  16
    x[18]     packing[18]  31
    x[18]     packing[20]  156
    x[18]     packing[21]  154
    x[18]     packing[22]  170
    x[18]     packing[23]  88
    x[18]     packing[24]  101
    x[18]     packing[25]  40
    x[18]     packing[26]  20
    x[18]     packing[27]  99
    x[18]     packing[28]  83
    x[18]     packing[29]  146
    x[18]     packing[31]  158
    x[18]     packing[33]  123
    x[18]     packing[34]  194
    x[18]     packing[36]  137
    x[18]     packing[37]  140
    x[18]     packing[38]  160
    x[18]     packing[39]  52
    x[18]     packing[41]  70
    x[18]     packing[42]  111
    x[18]     packing[43]  106
    x[18]     packing[44]  123
    x[18]     packing[45]  40
    x[18]     packing[46]  33
    x[18]     packing[47]  27
    x[18]     packing[49]  57
    x[19]     OBJ       72
    x[19]     packing[0]  100
    x[19]     packing[3]  187
    x[19]     packing[4]  131
    x[19]     packing[5]  84
    x[19]     packing[6]  108
    x[19]     packing[7]  65
    x[19]     packing[8]  110
    x[19]     packing[9]  82
    x[19]     packing[10]  51
    x[19]     packing[11]  30
    x[19]     packing[12]  51
    x[19]     packing[13]  163
    x[19]     packing[14]  40
    x[19]     packing[16]  15
    x[19]     packing[17]  90
    x[19]     packing[18]  141
    x[19]     packing[21]  36
    x[19]     packing[22]  111
    x[19]     packing[23]  174
    x[19]     packing[24]  141
    x[19]     packing[25]  124
    x[19]     packing[28]  73
    x[19]     packing[29]  9
    x[19]     packing[30]  79
    x[19]     packing[31]  34
    x[19]     packing[32]  158
    x[19]     packing[33]  76
    x[19]     packing[35]  182
    x[19]     packing[36]  17
    x[19]     packing[38]  2
    x[19]     packing[39]  147
    x[19]     packing[41]  193
    x[19]     packing[42]  8
    x[19]     packing[44]  51
    x[19]     packing[45]  123
    x[19]     packing[46]  72
    x[19]     packing[48]  27
    x[19]     packing[49]  75
    x[20]     OBJ       90
    x[20]     packing[0]  145
    x[20]     packing[1]  73
    x[20]     packing[2]  129
    x[20]     packing[3]  185
    x[20]     packing[4]  185
    x[20]     packing[5]  1
    x[20]     packing[6]  81
    x[20]     packing[9]  5
    x[20]     packing[10]  174
    x[20]     packing[12]  140
    x[20]     packing[14]  143
    x[20]     packing[17]  6
    x[20]     packing[18]  142
    x[20]     packing[19]  77
    x[20]     packing[20]  14
    x[20]     packing[21]  172
    x[20]     packing[22]  145
    x[20]     packing[24]  105
    x[20]     packing[25]  12
    x[20]     packing[26]  66
    x[20]     packing[27]  68
    x[20]     packing[29]  107
    x[20]     packing[30]  127
    x[20]     packing[32]  171
    x[20]     packing[34]  102
    x[20]     packing[35]  167
    x[20]     packing[36]  37
    x[20]     packing[37]  180
    x[20]     packing[39]  2
    x[20]     packing[40]  128
    x[20]     packing[41]  143
    x[20]     packing[44]  7
    x[20]     packing[45]  116
    x[20]     packing[47]  105
    x[20]     packing[49]  32
    MARKER    'MARKER'                 'INTEND'
RHS
    RHS1      packing[0]  943
    RHS1      packing[1]  538
    RHS1      packing[2]  480
    RHS1      packing[3]  613
    RHS1      packing[4]  717
    RHS1      packing[5]  594
    RHS1      packing[6]  603
    RHS1      packing[7]  720
    RHS1      packing[8]  508
    RHS1      packing[9]  534
    RHS1      packing[10]  1057
    RHS1      packing[11]  520
    RHS1      packing[12]  736
    RHS1      packing[13]  778
    RHS1      packing[14]  726
    RHS1      packing[15]  413
    RHS1      packing[16]  604
    RHS1      packing[17]  636
    RHS1      packing[18]  814
    RHS1      packing[19]  634
    RHS1      packing[20]  563
    RHS1      packing[21]  559
    RHS1      packing[22]  931
    RHS1      packing[23]  867
    RHS1      packing[24]  786
    RHS1      packing[25]  752
    RHS1      packing[26]  594
    RHS1      packing[27]  669
    RHS1      packing[28]  1258
    RHS1      packing[29]  869
    RHS1      packing[30]  893
    RHS1      packing[31]  608
    RHS1      packing[32]  681
    RHS1      packing[33]  806
    RHS1      packing[34]  613
    RHS1      packing[35]  801
    RHS1      packing[36]  602
    RHS1      packing[37]  812
    RHS1      packing[38]  620
    RHS1      packing[39]  782
    RHS1      packing[40]  821
    RHS1      packing[41]  781
    RHS1      packing[42]  816
    RHS1      packing[43]  797
    RHS1      packing[44]  800
    RHS1      packing[45]  744
    RHS1      packing[46]  771
    RHS1      packing[47]  756
    RHS1      packing[48]  790
    RHS1      packing[49]  728
    RHS1      R57       6
BOUNDS
 BV BND1      x[1]    
 BV BND1      x[2]    
 BV BND1      x[3]    
 BV BND1      x[4]    
 BV BND1      x[5]    
 BV BND1      x[6]    
 BV BND1      x[7]    
 BV BND1      x[8]    
 BV BND1      x[9]    
 BV BND1      x[10]   
 BV BND1      x[11]   
 BV BND1      x[12]   
 BV BND1      x[13]   
 BV BND1      x[14]   
 BV BND1      x[15]   
 BV BND1      x[16]   
 BV BND1      x[17]   
 BV BND1      x[18]   
 BV BND1      x[19]   
 BV BND1      x[20]   
ENDATA
